qe/outputs/qe/qe_queries_cbrdelay_obs/T=5,eliminate=[I_0,I_1,I_2,I_3,I_4,L_3,L_4,B].smt2
; benchmark generated from python API
(set-info :status unknown)
(declare-fun S_0 () Real)
(declare-fun S_4 () Real)
(declare-fun C () Real)
(declare-fun L_2 () Real)
(declare-fun A_2 () Real)
(declare-fun S_2 () Real)
(declare-fun S_3 () Real)
(declare-fun L_0 () Real)
(declare-fun A_0 () Real)
(declare-fun A_3 () Real)
(declare-fun S_1 () Real)
(declare-fun L_1 () Real)
(declare-fun A_1 () Real)
(declare-fun A_4 () Real)
(assert
 (let (($x34 (>= L_0 0.0)))
 (let (($x725 (>= C 5.0)))
 (let (($x6353 (<= 0.0 (+ (* (- 2.0) C) S_4 (* (- 1.0) A_1) L_1))))
 (let (($x1020 (<= (+ A_2 (* (- 1.0) L_2) C (* (- 1.0) S_4)) 0.0)))
 (let ((?x416 (* (- 1.0) A_1)))
 (let ((?x1256 (+ C ?x416 S_0 L_1)))
 (let (($x317 (<= 0.0 ?x1256)))
 (let (($x315 (not $x317)))
 (let ((?x465 (* (- 1.0) C)))
 (let ((?x496 (* (- 1.0) L_2)))
 (let ((?x2087 (+ A_2 ?x496 ?x465 ?x416 L_1)))
 (let (($x6570 (<= 0.0 ?x2087)))
 (let (($x6678 (or (not (<= (+ A_2 ?x496 (* (- 2.0) C) (* (- 1.0) S_0)) 0.0)) $x1020 $x6570)))
 (let (($x1249 (<= (+ A_2 ?x496 (* (- 1.0) S_3)) 0.0)))
 (let (($x6630 (or $x315 $x1249 (<= (+ (* (- 1.0) L_1) A_1 C (* (- 1.0) S_3)) 0.0))))
 (let (($x61 (= L_2 L_1)))
 (let (($x1259 (<= (+ A_2 ?x496 (* (- 2.0) C) (* (- 1.0) S_0)) 0.0)))
 (let (($x6605 (or $x317 $x1259 (<= (+ (* 3.0 C) (* (- 1.0) S_4) S_0) 0.0))))
 (let (($x6604 (or $x61 (<= (+ (* 2.0 C) (* (- 1.0) A_2) S_0 L_2) (- 5.0)) (<= (+ (* (- 1.0) L_1) A_1 C (* (- 1.0) A_2) L_2) (- 5.0)))))
 (let (($x6588 (or $x317 $x1249 (<= (+ (* 2.0 C) (* (- 1.0) S_3) S_0) 0.0))))
 (let (($x51 (= L_1 L_0)))
 (let (($x6475 (or $x51 (not (<= 0.0 (+ (* (- 1.0) A_2) L_2 S_4 ?x416 S_0 L_1))))))
 (let (($x6368 (not (<= 0.0 (+ (* (- 1.0) A_2) L_2 ?x465 S_4 ?x416 S_1 L_1)))))
 (let (($x2199 (<= (+ A_1 (* (- 1.0) S_2) (* (- 1.0) L_1)) 0.0)))
 (let ((?x412 (* (- 1.0) A_2)))
 (let ((?x1729 (+ C ?x412 S_1 L_2)))
 (let (($x6088 (<= 0.0 ?x1729)))
 (let (($x108 (>= S_1 S_0)))
 (let (($x111 (>= S_2 S_1)))
 (let (($x114 (>= S_3 S_2)))
 (let (($x117 (>= S_4 S_3)))
 (let (($x119 (>= A_1 A_0)))
 (let (($x120 (>= A_2 A_1)))
 (let (($x121 (>= A_3 A_2)))
 (let (($x122 (>= A_4 A_3)))
 (and $x122 $x121 $x120 $x119 $x117 $x114 $x111 $x108 (or $x51 (not (<= 0.0 (+ (* (- 1.0) L_1) L_0)))) (or $x61 (not $x1020)) (<= (+ (* (- 3.0) C) S_2 (* (- 1.0) S_0)) 0.0) (or $x51 $x61 (= (+ L_2 ?x412 A_1 C (* (- 1.0) L_1)) 0.0)) (or $x51 (<= (+ ?x416 S_1 L_1) (- 5.0))) (<= (+ ?x465 (* (- 1.0) A_0) S_1 L_0) 0.0) (or $x6088 (<= (+ (* 2.0 C) (* (- 1.0) S_4) S_1) 0.0)) (or $x1020 (not $x6088)) (or (<= (+ C (* (- 1.0) S_2) S_0) 0.0) $x2199) (or $x51 $x6368) (or $x51 (<= ?x1256 (- 5.0))) (<= (+ ?x416 S_1 L_1) 0.0) (or $x61 (<= (+ ?x465 ?x412 S_3 L_2) (- 5.0))) (or $x61 (not (<= 0.0 (+ L_1 ?x496)))) (or $x51 (<= ?x2087 0.0)) (or $x1249 (<= (+ C (* (- 1.0) S_3) S_1) 0.0)) (<= (+ L_1 ?x416 (* (- 3.0) C) S_4) 0.0) $x6475 (<= (+ (* (- 3.0) C) (* (- 1.0) A_0) S_3 L_0) 0.0) (or $x51 (<= (+ (* (- 2.0) C) ?x416 S_3 L_1) (- 5.0))) (or $x51 (<= (+ ?x416 ?x465 S_2 L_1) (- 5.0))) (<= (+ (* (- 1.0) A_0) (* (- 2.0) C) S_2 L_0) 0.0) (or (not $x6353) $x51) (<= (+ (* (- 3.0) C) S_4 (* (- 1.0) S_2)) 0.0) (or $x61 $x6570) $x6588 (or $x61 (<= (+ ?x412 S_2 L_2) (- 5.0))) $x6604 $x6605 (or $x61 (<= ?x1729 (- 5.0))) $x6630 (<= (+ (* (- 4.0) C) S_4 (* (- 1.0) S_1)) 0.0) (<= (+ (* (- 2.0) C) ?x416 S_3 L_1) 0.0) (<= (+ (* (- 3.0) C) S_3 (* (- 1.0) S_1)) 0.0) (<= (+ (* (- 4.0) C) S_3 (* (- 1.0) S_0)) 0.0) (<= (+ ?x465 ?x416 S_2 L_1) 0.0) $x6678 (or $x315 $x1020 $x6353) $x725 $x34 (<= (+ (* (- 1.0) A_0) S_0 L_0) 0.0) (<= (+ (* (- 2.0) C) S_2 (* (- 1.0) S_1)) 0.0) (<= (+ ?x412 L_2 S_2) 0.0) (<= (+ (* (- 2.0) C) S_1 (* (- 1.0) S_0)) 0.0) (not (>= (+ L_2 (* (- 1.0) A_3) S_4) 0.0)) (<= (+ (* (- 1.0) S_4) C S_2) 0.0) (<= (+ (* (- 2.0) C) S_4 (* (- 1.0) S_3)) 0.0) (<= (+ (* (- 4.0) C) S_4 (* (- 1.0) A_0) L_0) 0.0) (<= (+ ?x412 L_2 ?x465 S_3) 0.0) (<= (+ (* (- 2.0) C) S_3 (* (- 1.0) S_2)) 0.0) (<= (+ ?x412 L_2 (* (- 2.0) C) S_4) 0.0) (<= (+ (* (- 5.0) C) S_4 (* (- 1.0) S_0)) 0.0))))))))))))))))))))))))))))))))))))))
(check-sat)
